
50
12768

414 415
288 288
843 845
444 444
528 529
552 552
339 339
639 640
900 901
72 72
561 561
264 265
654 656
624 624
45 46
111 113
528 529
858 859
798 798
822 824
138 138
351 351
576 577
366 367
231 231
921 923
636 636
399 399
477 477
699 700
759 760
780 780
333 335
966 968
762 764
270 271
171 172
429 431
261 261
876 878
9 10
816 818
162 162
810 812
432 433
132 132
984 986
417 419
978 979
321 323
